## material properties
include ../DEM/DEMparameters


variable dt equal 0.25
variable skin equal 0.01



# particle settling loop parameters
variable vthre equal 0.01
###############################################
atom_style		granular
atom_modify		map array
communicate	single vel yes

boundary		f p f
newton			off
units			si
processors      1 1 8

read_restart 		../DEM/liggghts.restart
include ../DEM/latestTimeStep
reset_timestep ${latestTimeStep}



neighbor	${skin} bin
neigh_modify	delay 0
neigh_modify	exclude type 1 1
neigh_modify	exclude type 1 2
neigh_modify	exclude type 2 2


#Material properties required for new pair styles

fix 		m1 all property/global youngsModulus peratomtype ${yM_C} ${yM_O} ${yM_W}
fix 		m2 all property/global poissonsRatio peratomtype ${pR_C} ${pR_O} ${pR_W}
fix 		m3 all property/global coefficientRestitution peratomtypepair 3 ${rest_C} ${rest_CO} ${rest_CW} ${rest_CO} ${rest_O} ${rest_WO} ${rest_CW} ${rest_WO} ${rest_W}
fix 		m4 all property/global coefficientFriction peratomtypepair 3 ${fric_C} ${fric_CO} ${fric_CW} ${fric_CO} ${fric_O} ${fric_WO} ${fric_CW} ${fric_WO} ${fric_W}
fix         	m5 all property/global coefficientRollingFriction peratomtypepair 3 ${roll_C} ${roll_CO} ${roll_CW} ${roll_CO} ${roll_O} ${roll_WO} ${roll_CW} ${roll_WO} ${roll_W}
fix         	m6 all property/global characteristicVelocity scalar ${cV}

# data taken from Hou et al. Powder Technology 314 (2017)
fix 		ftco all property/global thermalConductivity peratomtype 1.7 80 1.0
fix 		ftca all property/global thermalCapacity peratomtype 850 600 1.0 
fix             heattransfer all heat/gran initial_temperature 293

#pair style
pair_style gran model hertz tangential history rolling_friction cdt
pair_coeff  * *

#timestep, gravity
timestep    ${dt}

fix         bottom all mesh/surface file ../DEM/stl_files/surface_bottom.stl type 3
fix         wall all mesh/surface file ../DEM/stl_files/surface_wall.stl type 3

fix granwalls all wall/gran model hertz tangential history mesh n_meshes 2 meshes bottom wall

group coke type 1
group ore type 2

fix         pts1 coke particletemplate/sphere 1 atom_type 1 density constant ${dens_C} radius constant ${rad_C}
fix	    pdd1 coke particledistribution/discrete 1.0 1 pts1 1.0

fix         pts2 ore particletemplate/sphere 2 atom_type 2 density constant ${dens_O} radius constant ${rad_O}
fix	    pdd2 ore particledistribution/discrete 1.0 1 pts2 1.0


fix	    fp all property/atom/polydispparcel effvolfactor ${poly_C} ${poly_O} 1.0

###########
# regions
###########
# raceways
variable RWradFreeze equal 0.35
region RW1Freeze cylinder x 0 0 ${RWradFreeze} -6.0 -4.0 
region RW2Freeze cylinder x 0 0 ${RWradFreeze} 4.0 6.0
region RW union 2 RW1Freeze RW2Freeze
group RW dynamic all region RW every 100

variable RWrad equal 0.4
region RW1 cylinder x 0 0 ${RWrad} -6.0 -4.0 
region RW2 cylinder x 0 0 ${RWrad} 4.0 6.0
region RWs union 2 RW1 RW2

# deadman
variable DMheight equal 3
variable DMslope equal -0.8
region DMwall1 plane 0 0 ${DMheight} 1 0 ${DMslope}
region DMwall2 plane 0 0 ${DMheight} -1 0 ${DMslope}
region DM intersect 2 DMwall1 DMwall2
group DMcoke region DM

delete_atoms region RW1
delete_atoms region RW2


###############################################################################################################################

group r1 region RW1
variable n1 equal count(r1)
print 'coke particles in RW1 ${n1}' screen yes
group r2 region RW2
variable n2 equal count(r2)
print 'coke particles in RW2 ${n2}' screen yes

#cfd coupling
fix		cfd all couple/cfd couple_every 1 mpi
fix		cfd1 all couple/cfd/force transfer_force no transfer_torque no transfer_density yes transfer_type yes transfer_property name effvolfactor type scalar-atom
fix		cfd2 all couple/cfd/recurrence transfer_force no transfer_fluctuations yes
fix		cfd3 all couple/cfd/convection T0 293 transfer_conduction yes
fix		cfd4 all couple/cfd/parttempfield T0 293
fix		cfd5 all couple/cfd/deform

fix		integr all nve/sphere/limit vlimit 0.05 omegalimit 1000.0

fix		limV all limit/vel 5.0
fix		limV RW limit/vel 0.01

run	0
velocity all set 0.0 0.0 0.0
#set group all property/atom dragforce 0.0 0.0 0.0
#reset_timestep 0


#screen output
compute		1 all erotate/sphere
thermo_style	custom step atoms ke c_1 vol 
thermo		100
thermo_modify	lost ignore norm no
compute_modify	thermo_temp dynamic yes

variable time equal step*dt
variable currStep equal step

# calculate average particle temperature
region      total block INF INF INF INF INF INF units box
variable np equal count(all,total)
compute sumtemp all reduce/region total sum f_Temp[0]
variable sumT1 equal c_sumtemp
variable Tave equal v_sumT1/v_np

#fix printheat all print 120 "${time} ${Tave}" file ../DEM/temp_ave.txt title "#time   T_ave"
fix printheat all print 120 "${time} ${Tave}" append ../DEM/temp_ave.txt title "#time   T_ave"



fix tdist1 all ave/histo 400 1 400 250 400 300 f_Temp[0] mode vector file ../DEM/temp_histo.txt title1 "Particle temperatures [K]"

variable Ndump equal 7200
dump 		myStl1 all stl ${Ndump} ../DEM/post/dump_dataDrivenCFD_*.stl
dump		dmp1 all custom/vtk ${Ndump} ../DEM/post/dump*.dataDrivenCFD.vtk id type radius x y z vx vy vz fx fy fz mass f_Temp[0] f_convectiveHeatFlux[0] f_vfluc[1] f_vfluc[2] f_vfluc[3]


set group coke property/atom/polydispparcel effvolfactor ${poly_C}
set group ore property/atom/polydispparcel effvolfactor ${poly_O}

variable Nset equal 10
fix eeDM all execute ${Nset} "../DEM/in.DM" file
include ../DEM/in.RW

include ../DEM/in.cleanup

include ../../CFDDEM/DEM/zInsLower
region regTop block -4.61 4.61 -0.59 0.59 ${zInsLower} 26.1 units box
variable nTot equal count(all,regTop)
variable Nins equal 100
fix eeIns all execute ${Nins} "../DEM/in.insert" file conditional nTot 0 0.1

variable np equal count(all)
fix printN all print 240 "${time} ${np} ${nTot}" append ../DEM/Npart_dataDrivenCFD.txt title "#time   n_p n_upper"

variable mc equal mass(coke)
fix printMC all print 240 "${time} ${mc}" append ../DEM/Mcoke_dataDrivenCFD.txt title "#time   m_c"

include ../DEM/in.monitor
